
c turning on binary mode checking

c parsing input formula with 3656 variables and 22882 clauses

c finished parsing, read 86275 bytes from proof file

c detected empty clause; start verification via backward checking

c 46 of 22882 clauses in core                            

c 10 of 1877 lemmas in core using 55 resolution steps

c 0 RAT lemmas in core; 0 redundant literals in core lemmas

s VERIFIED

c verification time: 0.057 seconds
